T = 10;
Dn = [10, 8, 15, 10, 10, 12, 14, 9, 13, 12];
Ds = [10, 6, 6, 11, 15, 14, 10, 8, 10, 5];
R = [10, 9, 14, 21, 7, 19, 21, 12, 12, 11];
f = [22, 23, 9, 16, 21, 16, 12, 11, 21, 14];
pn = [1, 3, 5, 7, 1, 6, 5, 7, 6, 4];
ps = [1, 2, 1, 4, 1, 2, 4, 1, 4, 2];
hn = [3, 3, 4, 2, 3, 4, 3, 2, 2, 3];
hs = [2, 2, 1, 3, 3, 1, 3, 1, 3, 3];
hr = [1, 1, 1, 1, 1, 1, 1, 1, 1, 1];
